!File created by the GAMESS Input Deck Generator Plugin for Avogadro
 $BASIS GBASIS=STO NGAUSS=3 $END
 $CONTRL SCFTYP=RHF RUNTYP=SADPOINT $END
 $STATPT hssend=.t. OPTTOL=0.0005 NSTEP=50 $END
 $STATPT HESS=calc ihrep=5 $END
 $FORCE NVIB=2 $END
 $ZMAT DLC=.t. auto=.t. nonvdw(1)=1,6,3,4,4,5,5,6,1,2,2,3 $END
!$ZMAT IFZMAT(1)=1,1,6,1,4,3 fvalue(1)=2.0,2.0 $END

 $DATA 
Title
C1
C     6.0     5.25095749    -1.91954494     1.99807370
C     6.0     3.91554046    -1.51878905     1.81651437
C     6.0     3.43210936    -1.34159935     0.50946969
C     6.0     4.53339720     0.00816547    -0.32631278
C     6.0     5.49801207     0.37888250     0.62613899
C     6.0     6.36050463    -0.64522696     1.06130886
C     6.0     6.90446901    -1.51897693    -0.04713550
C     6.0     6.32223082    -1.59069133    -1.22589743
C     6.0     5.06131983    -0.80934948    -1.51949370
O     8.0     4.50263500    -0.82378513    -2.60724187
H     1.0     5.63252401    -1.91619551     3.01422358
H     1.0     5.58411360    -2.78767729     1.44142711
H     1.0     3.47826719    -0.89826727     2.59027123
H     1.0     3.63183188    -2.13983345    -0.19626145
H     1.0     2.43028545    -0.94035131     0.39705804
H     1.0     3.81211495     0.76369244    -0.62562048
H     1.0     5.29190445     1.20991218     1.28951526
H     1.0     7.09683037    -0.38972744     1.81786811
H     1.0     7.80204105    -2.08684969     0.17261088
H     1.0     6.72343016    -2.19004297    -2.03250480
 $END
