!File created by the GAMESS Input Deck Generator Plugin for Avogadro
 $BASIS GBASIS=STO NGAUSS=3 $END
 $CONTRL SCFTYP=RHF RUNTYP=OPTIMIZE NZVAR=1 mult=1  ICHARG=0 $END
 $STATPT hssend=.t. OPTTOL=0.0005 NSTEP=50 $END
 $STATPT HESS=calc ihrep=5 $END
 $FORCE NVIB=2 $END
 $ZMAT DLC=.t. auto=.t. nonvdw(1)=6,17,1,17,19,9 $END
 $ZMAT IFZMAT(1)=1,6,17,1,17,19,1,9,19 fvalue(1)=2.08,1.98,2.01 $END
  
 $DATA 
Title
C1
C     6.0     3.29742    -4.87626     0.00151
C     6.0     2.24228    -3.77170     0.05488
C     6.0     2.52245    -6.06799     0.53122
H     1.0     4.24133    -4.64390     0.53849
H     1.0     3.53978    -5.07739    -1.06879
C     6.0     0.97362    -4.52277    -0.34179
H     1.0     2.49815    -2.92916    -0.62145
H     1.0     2.15502    -3.39623     1.09761
C     6.0     1.22281    -5.85290    -0.18410
H     1.0     2.37218    -5.92820     1.62523
H     1.0     3.00423    -7.05039     0.34020
H     1.0     0.26679    -4.22374    -1.14047
C     6.0     0.43572    -6.94864    -0.85285
H     1.0     1.08560    -7.47813    -1.58004
H     1.0    -0.44361    -6.53676    -1.39208
H     1.0     0.08033    -7.67641    -0.09422
B     5.0    -0.44887    -4.01547     1.08729
H     1.0    -0.14254    -3.20277     1.89126
H     1.0     0.06814    -5.89385     1.45809
H     1.0    -1.50728    -3.85291     0.57936
 $END


