!File created by the GAMESS Input Deck Generator Plugin for Avogadro
 $BASIS GBASIS=STO NGAUSS=3 $END
 $CONTRL SCFTYP=RHF RUNTYP=OPTIMIZE NZVAR=1 mult=1  ICHARG=0 $END
 $STATPT hssend=.t. OPTTOL=0.0005 NSTEP=50 $END
 $STATPT HESS=calc ihrep=5 $END
 $FORCE NVIB=2 $END
 $ZMAT DLC=.t. auto=.t. nonvdw(1)=1,6,3,4 $END
 $ZMAT IFZMAT(1)=1,1,6,1,4,3 fvalue(1)=2.0,2.0 $END

 $DATA 
Title
C1
C     6.0     5.17888    -1.96535     1.97296
C     6.0     3.90067    -1.51465     1.89402
C     6.0     3.28160    -1.25482     0.54760
C     6.0     4.53043     0.00235    -0.37616
C     6.0     5.54204     0.33573     0.68544
C     6.0     6.38839    -0.66928     1.04144
C     6.0     6.98176    -1.41851    -0.09260
C     6.0     6.40096    -1.50218    -1.29853
C     6.0     5.10240    -0.81487    -1.52051
O     8.0     4.51428    -0.95931    -2.59041
H     1.0     5.63134    -2.05409     2.96403
H     1.0     5.47017    -2.71356     1.22735
H     1.0     3.44288    -1.03602     2.75622
H     1.0     3.19468    -2.12971    -0.10165
H     1.0     2.35182    -0.68314     0.61264
H     1.0     3.92035     0.84215    -0.71585
H     1.0     5.32265     1.14291     1.37740
H     1.0     7.05349    -0.50966     1.89783
H     1.0     7.93793    -1.90150     0.09192
H     1.0     6.82590    -2.04917    -2.12906
 $END
