!File created by the GAMESS Input Deck Generator Plugin for Avogadro
 $BASIS GBASIS=STO NGAUSS=3 $END
 $CONTRL SCFTYP=RHF RUNTYP=IRC $END
 $STATPT HESS=READ ihrep=5 $END
 $FORCE NVIB=2 $END
 $irc npoint=100 saddle=.t. tsengy=.t. forwrd=.f. opttol=0.0005 stride=0.1 $end
 $ZMAT DLC=.t. auto=.t. nonvdw(1)=1,6,3,4,4,5,5,6,1,2,2,3 $END


 $DATA 
Title
C1
C     6.0     5.25095749    -1.91954494     1.99807370
C     6.0     3.91554046    -1.51878905     1.81651437
C     6.0     3.43210936    -1.34159935     0.50946969
C     6.0     4.53339720     0.00816547    -0.32631278
C     6.0     5.49801207     0.37888250     0.62613899
C     6.0     6.36050463    -0.64522696     1.06130886
C     6.0     6.90446901    -1.51897693    -0.04713550
C     6.0     6.32223082    -1.59069133    -1.22589743
C     6.0     5.06131983    -0.80934948    -1.51949370
O     8.0     4.50263500    -0.82378513    -2.60724187
H     1.0     5.63252401    -1.91619551     3.01422358
H     1.0     5.58411360    -2.78767729     1.44142711
H     1.0     3.47826719    -0.89826727     2.59027123
H     1.0     3.63183188    -2.13983345    -0.19626145
H     1.0     2.43028545    -0.94035131     0.39705804
H     1.0     3.81211495     0.76369244    -0.62562048
H     1.0     5.29190445     1.20991218     1.28951526
H     1.0     7.09683037    -0.38972744     1.81786811
H     1.0     7.80204105    -2.08684969     0.17261088
H     1.0     6.72343016    -2.19004297    -2.03250480
 $END

 $HESS
ENERGY IS     -416.0940647003 E(NUC) IS      511.4290011934
 1  1 5.47175980E-01-3.49415753E-01 2.19681380E-01-3.07748925E-01 1.17572278E-01
 1  2 4.49721729E-02 1.68475615E-02 9.41548569E-02-1.48007731E-01-1.21731933E-01
 1  3-9.57014327E-02-1.03820274E-02 1.08057004E-01-7.10189550E-02 9.97638819E-02
 1  4 5.30437977E-03 1.80189588E-01-1.31250352E-01-1.90070742E-02-8.66258185E-03
 1  5 3.07743959E-02-6.32937196E-03-3.72940960E-03-6.07467443E-03 5.47777715E-03
 1  6 1.08873606E-02-4.59351676E-03-7.89504635E-04-3.22432334E-03-1.22322065E-03
 1  7-1.10899925E-01 2.25266181E-02-1.39743343E-01-8.62042415E-02 1.30882799E-01
 1  8 3.39385584E-02-1.05663067E-02-1.90441221E-03-9.68110816E-03-1.16789690E-02
 1  9-1.15701577E-02 8.54226012E-03-1.68842239E-03-3.34008815E-03-3.06531839E-04
 1 10 6.14661643E-03 3.29569504E-03-3.36190562E-03-3.61017622E-04 2.59868610E-03
 1 11 1.02075484E-03-1.49381353E-02-1.67744256E-02 1.72480568E-02 8.56467589E-04
 1 12 1.03459512E-03-3.20066764E-04 2.07269792E-03 2.20339115E-03-9.98085885E-04
 2  1-3.49415753E-01 5.48759674E-01 1.93238590E-01 1.91794760E-01-1.52874481E-01
 2  2 1.07736140E-02 1.24044153E-02 2.85436114E-02-3.76063987E-02-3.78442323E-02
 2  3-3.10394596E-02-4.90530256E-03 4.29262833E-02-4.16864883E-02 5.44889898E-02
 2  4 1.36531614E-02 3.29778137E-02-5.64371962E-02-5.90595745E-03 3.39426074E-03
 2  5 1.52661157E-02-4.67105444E-03-1.99309048E-03-5.10840285E-03 3.63440794E-03
 2  6 7.61907551E-04-8.31196329E-04-1.45245963E-03-8.52650131E-04-1.54228641E-03
 2  7 1.05245793E-02-6.81999305E-02-1.49987437E-02 1.06058109E-01-3.11088916E-01
 2  8-1.70491520E-01 2.76660376E-02 3.48039533E-04 8.21866856E-03-6.66567587E-03
 2  9-5.41911271E-03 6.10566750E-03 2.70448680E-03 3.93113888E-03-4.06129007E-04
 2 10 9.45925509E-04 1.37317683E-03-1.89429477E-03-2.45392845E-04-1.00772471E-04
 2 11-9.82273988E-04-6.96246895E-03-7.78904667E-03 8.20254281E-03 4.86195097E-04
 2 12-2.67366157E-04-8.06346203E-04 3.62241259E-04 1.22367759E-03-2.85177210E-04
 3  1 2.19681380E-01 1.93238590E-01 7.90772418E-01-1.10961597E-01 4.51033206E-03
 3  2-1.74822089E-01-5.52911153E-02-7.69935790E-03 3.82197334E-02 3.38255216E-02
 3  3 3.15462664E-02 2.13987472E-03-3.91894244E-02 2.93825465E-02-4.02291004E-02
 3  4-1.51564497E-02-6.54872234E-02 1.53176206E-03 1.71398351E-02 9.79858109E-03
 3  5-2.45055572E-02 3.54011942E-03 1.55679557E-03 2.32315708E-03-1.15302525E-03
 3  6-2.22743075E-03 8.58702458E-05 3.11453144E-04 8.69543723E-04 1.23023864E-03
 3  7-1.26935952E-01-8.66441607E-03-4.22365250E-01 4.61237957E-02-1.80686487E-01
 3  8-1.78770554E-01 2.89027628E-02-8.53423160E-03 9.33150145E-03 5.00354251E-03
 3  9 3.96497023E-03-1.22452984E-03-1.18968742E-03 2.37225112E-03-8.43601449E-03
 3 10-4.24068282E-04-8.13715787E-04 1.33405265E-03 8.24108541E-04 8.24154231E-04
 3 11 1.30872565E-04-3.31628053E-03-2.18042997E-03 1.41382240E-03-6.01357875E-04
 3 12-5.82930080E-04 8.95478495E-04-1.13160387E-03-1.18924836E-03 9.45441214E-04
 4  1-3.07748925E-01 1.91794760E-01-1.10961597E-01 6.95773336E-01-2.42500019E-01
 4  2 1.33117389E-02-1.98159280E-01-1.63867016E-02-2.40066489E-02 8.79558148E-02
 4  3 7.44781311E-02-4.50930748E-03-9.81716524E-02 2.16385828E-02-5.42707454E-02
 4  4-4.39995856E-02-1.37316043E-01 9.43243634E-02 7.85903953E-03 3.27132591E-03
 4  5-1.07246204E-02 3.36335724E-03 2.43967961E-03 2.25378769E-03-3.34810361E-03
 4  6-5.59673393E-03 6.21336720E-03-8.48195764E-05 1.93997207E-03 7.88112826E-04
 4  7-8.71944846E-03-3.94001262E-03 9.99198405E-03-2.05838268E-02-1.88726818E-02
 4  8 1.09187995E-02-1.33458570E-01 1.08362809E-01 1.06498932E-01 1.82715796E-02
 4  9 6.71897952E-03 4.51138501E-03 4.89623226E-04 1.04397542E-02-4.28500953E-02
 4 10-3.33036612E-03-2.85235948E-03 3.12485174E-03 7.38080457E-04 2.62818756E-03
 4 11 6.64511675E-04 4.84354191E-03 5.54650256E-03-5.79179195E-03-4.69496829E-04
 4 12-5.69680501E-04 3.50224237E-05-1.21684168E-03-1.22784727E-03 4.79557281E-04
 5  1 1.17572278E-01-1.52874481E-01 4.51033206E-03-2.42500019E-01 4.43292689E-01
 5  2 1.63744592E-01 5.53256879E-02-7.64447643E-02-4.48098094E-02-4.53500707E-02
 5  3-4.16810338E-02 1.44630338E-02 1.29082008E-03-2.43002205E-02 4.80386093E-02
 5  4-2.43627138E-03 2.49032493E-02-1.64595624E-02-1.32269814E-03-1.67379025E-03
 5  5 7.22513442E-04-6.79432820E-04 9.94048410E-05 2.24818962E-04 1.88018233E-03
 5  6 7.67479679E-04-4.16180648E-03 2.13821763E-04-2.51566287E-05 1.15767334E-03
 5  7 7.48410003E-04 4.06187115E-03-1.24983832E-03 3.69399261E-02 2.77713030E-03
 5  8 3.00090649E-03 9.53711841E-02-1.88194578E-01-1.58189737E-01-1.64365589E-02
 5  9 7.42761174E-03-2.80599894E-02-9.76741402E-04-1.34366575E-03 1.54736944E-02
 5 10 8.55340401E-04 9.30537188E-04-4.60464338E-04 1.51935412E-03 3.43697146E-03
 5 11-5.56011215E-04-2.07836054E-03-1.72765399E-03 2.39525122E-03-8.34229579E-05
 5 12 4.73282041E-04 2.67455116E-04 1.45456536E-04 9.60143496E-05-5.19650574E-05
 6  1 4.49721729E-02 1.07736140E-02-1.74822089E-01 1.33117389E-02 1.63744592E-01
 6  2 8.32822361E-01-1.72834023E-01-6.33046285E-02-3.59903138E-01 1.06422350E-01
 6  3 9.24160515E-02-1.53951501E-02-6.41849504E-02 2.90720213E-02-6.03674613E-02
 6  4-1.74749419E-02-7.56543340E-02 5.10102561E-02 5.18827624E-03 1.06627940E-03
 6  5-6.30389291E-03 2.60387030E-03 2.00777040E-03 1.31076960E-03-4.99726217E-03
 6  6-6.12803034E-03 7.04421608E-03 3.36843393E-04 1.90804523E-03-5.50535979E-04
 6  7-4.46164133E-02 7.27746047E-03 6.32296089E-03 1.93234292E-02-1.11376092E-02
 6  8 1.54618890E-02 1.00240173E-01-1.75989461E-01-2.70881181E-01 4.28757446E-03
 6  9 2.41136780E-02-2.79089843E-02 1.06539391E-02 4.55388206E-03 2.18465597E-03
 6 10-5.15395997E-03-3.56115254E-03 2.99763927E-03-4.60696256E-04-2.50921497E-03
 6 11-2.54364265E-04 3.35852782E-03 2.63964154E-03-2.83180913E-03-2.65741527E-04
 6 12-5.55432185E-04-2.30003091E-04-7.08153207E-04-7.35770721E-04 2.94005654E-04
 7  1 1.68475615E-02 1.24044153E-02-5.52911153E-02-1.98159280E-01 5.53256879E-02
 7  2-1.72834023E-01 7.32844558E-01-2.86228542E-01 2.06708309E-01 1.01986511E-02
 7  3 4.29681139E-02-9.95358062E-04-5.39755272E-02-1.12062980E-03-2.85179522E-02
 7  4-5.85847225E-03-3.20232326E-02 1.49894732E-02 2.39592933E-03-4.44250201E-04
 7  5-1.47697921E-03 1.57128431E-03 1.50596181E-03-1.18492584E-03-1.10522016E-02
 7  6-7.32569833E-03 2.18234066E-02-7.87803350E-04 5.53770494E-04-5.11295976E-03
 7  7-7.38823682E-03 3.41922574E-03-6.98950490E-04-2.81869768E-03-4.48198378E-03
 7  8 4.33535282E-03 8.96387111E-03-4.89511730E-05 1.61460747E-02-8.73853291E-02
 7  9 7.38121020E-02 4.06205143E-02-4.09013935E-01 1.40823778E-01-3.59421827E-02
 7 10 2.13288452E-03 3.41988969E-03-2.91694468E-03-2.87830572E-04-1.75563870E-03
 7 11 3.79725400E-04 1.80590707E-03 2.65499791E-04-2.02088343E-04-2.14156875E-04
 7 12-4.31226008E-04-3.50541213E-05 1.82507235E-04-6.39606597E-04 2.05656862E-04
 8  1 9.41548569E-02 2.85436114E-02-7.69935790E-03-1.63867016E-02-7.64447643E-02
 8  2-6.33046285E-02-2.86228542E-01 4.62618755E-01 2.87317457E-01 1.19254106E-01
 8  3 4.62989591E-02-7.78711524E-03-1.01226057E-01 3.56408459E-03-5.99170891E-02
 8  4-2.78732584E-03-7.92127522E-02 4.86803658E-02 4.39223335E-03 4.41034756E-03
 8  5-8.31920624E-04 2.91996725E-04 1.21640223E-03 2.15150479E-04-7.90484610E-03
 8  6-1.09545334E-03 1.65755549E-02-1.56680260E-03 1.33227211E-04-4.42235273E-03
 8  7 3.55012365E-03 2.59756900E-03-1.49596402E-03-9.98706100E-03-7.97037720E-03
 8  8 8.63920195E-03-1.16627764E-02 8.55950590E-03-2.59641815E-02 7.42363843E-02
 8  9-2.68712141E-01-1.97778543E-01 1.53604378E-01-1.14314755E-01 6.26335947E-04
 8 10-1.49949939E-02-1.21604344E-02 9.86031343E-03 3.46792610E-04 2.51297589E-04
 8 11 8.46836487E-04 3.53235676E-03 2.90244200E-03-3.88617272E-03-4.59271050E-04
 8 12-6.74961919E-04 8.47289308E-05-1.55723353E-04-5.13256624E-04 2.42596520E-04
 9  1-1.48007731E-01-3.76063987E-02 3.82197334E-02-2.40066489E-02-4.48098094E-02
 9  2-3.59903138E-01 2.06708309E-01 2.87317457E-01 6.96038977E-01-1.46251739E-01
 9  3-1.21883392E-01-2.46944636E-02 1.13927250E-01-1.42942462E-02 8.05363816E-02
 9  4 1.14330707E-02 1.18265179E-01-7.65335051E-02-6.95907314E-03-6.15020059E-03
 9  5 7.93989473E-03-4.49483088E-03-3.69335073E-03-5.42489836E-05 1.66852357E-02
 9  6 1.87004182E-02-2.92975324E-02 2.19175619E-03-3.76888463E-03 2.44107096E-03
 9  7 2.63071910E-03 3.11412355E-03-9.07147446E-04 8.90147170E-03 1.06943304E-02
 9  8-8.57763878E-03-1.45926794E-02 1.45185894E-02-2.07024622E-02 2.02154241E-02
 9  9-2.17388022E-01-2.23829025E-01-4.83222478E-02-6.88604921E-03-7.69057393E-02
 9 10 1.09579991E-02 7.91401813E-03-6.64868326E-03 7.54686689E-04-1.51594965E-03
 9 11-2.27152851E-03-3.88217704E-03-4.90682942E-03 5.96184645E-03 7.28527710E-04
 9 12 9.04431201E-04-1.34669207E-04 1.37767177E-03 1.47851853E-03-6.79983646E-04
10  1-1.21731933E-01-3.78442323E-02 3.38255216E-02 8.79558148E-02-4.53500707E-02
10  2 1.06422350E-01 1.01986511E-02 1.19254106E-01-1.46251739E-01 5.74325883E-01
10  3-3.39076942E-01 2.68236956E-01-1.73544538E-01-5.47839206E-02-1.28146233E-01
10  4-2.28271900E-02 1.05152731E-01-8.82495726E-02-4.92339326E-03-1.23689787E-02
10  5 1.76517700E-03-4.75807649E-03 1.89607791E-02 2.43118210E-02-1.31126182E-01
10  6 6.96052610E-02 1.68484879E-02 2.45411817E-02-1.29381583E-02-1.95582719E-02
10  7 2.91856373E-03 3.96824075E-03-8.12641199E-04 7.94863474E-03 8.35393959E-03
10  8-8.26801423E-03 9.08371781E-04-3.94493935E-05-1.92384099E-03-1.24814612E-02
10  9-1.30011494E-02 8.71650867E-03-1.20164621E-02-2.29241094E-02 9.81137092E-03
10 10-2.30272735E-01 2.01772809E-01-8.52048685E-02 1.08267778E-02 6.21908770E-03
10 11 9.94456481E-03-3.46987373E-03 2.06238842E-03 1.43073862E-03 1.01279989E-03
10 12-1.30881131E-04-9.28083103E-05-3.48774460E-03 3.11131617E-03-2.80697826E-03
11  1-9.57014327E-02-3.10394596E-02 3.15462664E-02 7.44781311E-02-4.16810338E-02
11  2 9.24160515E-02 4.29681139E-02 4.62989591E-02-1.21883392E-01-3.39076942E-01
11  3 5.08103029E-01 1.00672057E-01 6.47150266E-02-1.63412224E-01-2.41481072E-02
11  4 2.34259861E-02 1.06239605E-01-2.34185986E-02-8.40240516E-03-1.07396151E-02
11  5-3.78509466E-03 1.76568710E-02-5.32768718E-03-1.95568288E-02 6.90421219E-02
11  6-1.38105932E-01-7.81484191E-02-3.02853094E-04 1.18846202E-02-1.21251402E-02
11  7 1.39400254E-03 2.95238148E-03-1.26206632E-03 5.59838280E-03 6.97031525E-03
11  8-6.04631576E-03-3.63950452E-04-2.32017158E-04-6.26420261E-04-2.26854250E-02
11  9-2.26867067E-02 1.49231061E-02-6.74995521E-04-4.68872915E-03 2.01528756E-03
11 10 1.87606061E-01-2.57045898E-01 6.25434950E-02-2.42553916E-02 3.55627840E-04
11 11-1.91033042E-02 2.05871043E-03-7.83455440E-03 4.03731329E-03-1.02396703E-03
11 12-1.63868418E-05 7.15477774E-04 3.54285448E-03 7.63723715E-06 1.23276593E-03
12  1-1.03820274E-02-4.90530256E-03 2.13987472E-03-4.50930748E-03 1.44630338E-02
12  2-1.53951501E-02-9.95358062E-04-7.78711524E-03-2.46944636E-02 2.68236956E-01
12  3 1.00672057E-01 6.88243243E-01-1.78196428E-01-1.05524697E-01-2.95120116E-01
12  4-1.11644820E-02 1.88210617E-02-1.72579793E-02 1.34393378E-03 2.79642386E-03
12  5-1.02920154E-03-3.86245923E-03 1.51613578E-03 9.07838300E-03 4.61561607E-02
12  6-5.28268238E-02-1.74202472E-01-1.05890676E-03-3.19246017E-02-6.45007734E-02
12  7 1.82806708E-03 5.43730867E-04 6.84857384E-04 2.48268071E-03 9.65522428E-04
12  8-1.68088570E-03 1.34687726E-03-8.98273019E-04-7.83126001E-04-2.85221226E-03
12  9-2.94344443E-03 1.68270955E-03 2.14019514E-04 1.63779894E-03-6.24256272E-04
12 10-7.38162546E-02 6.91085242E-02-1.03515870E-01-2.54058218E-02-1.49991533E-03
12 11-6.46554541E-03-4.78476072E-03-1.39161190E-03 3.32000908E-03-1.64500276E-04
12 12 7.16160766E-05-1.58556381E-04-4.41660664E-03-8.93847306E-04 2.80320376E-04
13  1 1.08057004E-01 4.29262833E-02-3.91894244E-02-9.81716524E-02 1.29082008E-03
13  2-6.41849504E-02-5.39755272E-02-1.01226057E-01 1.13927250E-01-1.73544538E-01
13  3 6.47150266E-02-1.78196428E-01 5.75102297E-01-1.85726189E-01 1.76158279E-01
13  4-2.65749635E-01 8.12936234E-02-3.81755766E-02-1.63482099E-04 3.42950093E-02
13  5 8.17726055E-03-4.10440665E-03 1.38948179E-03-4.91346728E-03 1.24016708E-02
13  6-2.06827199E-02 6.57832086E-03-1.31636948E-03 6.30350189E-03 9.24794330E-03
13  7-2.26842268E-03-4.16529907E-03 1.42568685E-03-6.95820615E-03-9.37306372E-03
13  8 7.60898893E-03 2.18397678E-03 4.58366423E-04-2.08251412E-03 8.62981666E-03
13  9 8.63883117E-03-5.71005495E-03 2.91620174E-03 5.46571865E-03-2.36278559E-03
13 10-1.67613543E-02-2.02798043E-02-9.36633108E-03-8.21093785E-02 6.41056326E-02
13 11 3.29413548E-02-3.59107320E-03 3.03104303E-02-1.13656072E-02 5.65185628E-04
13 12 1.05976027E-04-2.24653809E-04-1.13927612E-03 1.51950020E-04-2.91587459E-04
14  1-7.10189550E-02-4.16864883E-02 2.93825465E-02 2.16385828E-02-2.43002205E-02
14  2 2.90720213E-02-1.12062980E-03 3.56408459E-03-1.42942462E-02-5.47839206E-02
14  3-1.63412224E-01-1.05524697E-01-1.85726189E-01 7.71305790E-01 2.43928024E-01
14  4 2.04120118E-01-2.52582448E-01 1.72077181E-02 1.19753708E-02-3.06456323E-02
14  5 4.93936209E-03 8.76611069E-04 2.31507366E-03 4.07097057E-03-2.19615004E-02
14  6-1.18583274E-03-1.21957259E-02 2.70312890E-03-2.08090846E-03-5.02218881E-03
14  7 2.60181463E-03 2.72329540E-03-5.63682670E-04 4.86257034E-03 4.70027904E-03
14  8-4.28430578E-03 2.16200027E-03 8.28051195E-05-2.68338792E-03-1.59713183E-03
14  9-1.33695557E-03-1.34166874E-05-7.47077957E-04-2.34919932E-04-4.21801760E-04
14 10 2.48238155E-02 1.62721074E-02 2.27604119E-02 7.65129954E-02-2.95253984E-01
14 11-2.01649552E-01-1.61613509E-02 1.14325064E-02-3.44067066E-03 7.43611283E-04
14 12-3.25359082E-04-1.90343679E-03 9.46350471E-05 6.50421756E-04 6.36985123E-04
15  1 9.97638819E-02 5.44889898E-02-4.02291004E-02-5.42707454E-02 4.80386093E-02
15  2-6.03674613E-02-2.85179522E-02-5.99170891E-02 8.05363816E-02-1.28146233E-01
15  3-2.41481072E-02-2.95120116E-01 1.76158279E-01 2.43928024E-01 6.55902196E-01
15  4-9.52521582E-02-4.73376407E-02-1.00409031E-01 2.87928299E-02-1.79047779E-02
15  5 9.54186856E-03 4.60360887E-04 6.79682509E-04 1.33733156E-03-2.49730423E-02
15  6-2.99496621E-02-2.49691348E-02 4.13507707E-03 1.09893882E-03 1.16046275E-03
15  7-2.04907921E-03-2.77727332E-03 1.23962778E-03-5.36004776E-03-6.88247366E-03
15  8 5.20617502E-03-1.90729977E-03-1.58930235E-03 2.06640588E-03 7.29951957E-03
15  9 6.95544731E-03-4.11085407E-03 2.42425727E-03 4.97052511E-03-1.63393652E-03
15 10-9.12744382E-03-1.06029168E-02 1.26752025E-03 3.78162252E-02-1.85480900E-01
15 11-2.18082556E-01-7.09199829E-03 3.00251661E-02-8.12615146E-03 1.25650673E-03
15 12-4.14774373E-03-5.69614484E-03-1.40835905E-03 5.50196173E-04 4.86766024E-04
16  1 5.30437977E-03 1.36531614E-02-1.51564497E-02-4.39995856E-02-2.43627138E-03
16  2-1.74749419E-02-5.85847225E-03-2.78732584E-03 1.14330707E-02-2.28271900E-02
16  3 2.34259861E-02-1.11644820E-02-2.65749635E-01 2.04120118E-01-9.52521582E-02
16  4 7.11463917E-01-2.29813127E-01 2.90720880E-01-1.47287912E-01 4.52857849E-02
16  5 1.39777721E-02 2.72240415E-02-9.07904177E-03-1.90020882E-03-7.24291321E-03
16  6-8.42890738E-03 3.51000743E-04 1.88919888E-03 1.78660816E-03 2.26244076E-03
16  7-2.27824356E-04 9.96163381E-04-1.39466187E-03-3.00033151E-03-4.05021127E-03
16  8 3.71752976E-03-8.55073215E-04-1.27524502E-04 2.00799565E-03 5.99448170E-04
16  9 3.63145058E-04 1.31822042E-03 9.80848717E-04-1.05762331E-03 1.44242491E-03
16 10-2.22856539E-04 4.64625738E-04-6.81189918E-03 1.37163892E-03 2.29911292E-03
16 11-9.80473742E-03-2.50418811E-01-5.69614163E-02-1.87501908E-01-2.88299797E-03
16 12 1.54929583E-02 2.57148862E-02 1.74167087E-03 6.85238617E-03-6.48499675E-03
17  1 1.80189588E-01 3.29778137E-02-6.54872234E-02-1.37316043E-01 2.49032493E-02
17  2-7.56543340E-02-3.20232326E-02-7.92127522E-02 1.18265179E-01 1.05152731E-01
17  3 1.06239605E-01 1.88210617E-02 8.12936234E-02-2.52582448E-01-4.73376407E-02
17  4-2.29813127E-01 4.57022548E-01 2.31842922E-01 8.27294211E-02-1.52202814E-01
17  5-1.13389779E-01 3.00710853E-04 3.36749045E-04-9.04417170E-03-1.00561840E-02
17  6-1.79388197E-02 5.59380600E-03 2.41190616E-03 3.11785675E-03 1.77481423E-03
17  7-6.18568636E-03-7.62007889E-03 1.50159461E-03-2.34165541E-02-2.85726803E-02
17  8 2.25648161E-02 5.98792413E-04-2.12195740E-03-6.36455700E-04 9.58442262E-03
17  9 8.43185549E-03-6.36156038E-03 2.70031716E-03 5.72888391E-03-2.14371088E-03
17 10-5.51622534E-03-3.29531448E-03-1.00523809E-03 1.59237860E-02-1.26645646E-02
17 11 1.80610647E-02-4.36488057E-02-8.38541973E-02-7.76572675E-02 1.95677693E-03
17 12-5.55596643E-03-1.78259914E-02 5.13862021E-03 6.85949211E-03-1.88016801E-03
18  1-1.31250352E-01-5.64371962E-02 1.53176206E-03 9.43243634E-02-1.64595624E-02
18  2 5.10102561E-02 1.49894732E-02 4.86803658E-02-7.65335051E-02-8.82495726E-02
18  3-2.34185986E-02-1.72579793E-02-3.81755766E-02 1.72077181E-02-1.00409031E-01
18  4 2.90720880E-01 2.31842922E-01 6.22122315E-01 3.48661112E-02-9.74746559E-02
18  5-2.01761113E-01 4.04727945E-03-2.67739225E-02-4.00811221E-02 7.70816116E-03
18  6 1.28809686E-02 2.92523852E-03-8.44701360E-04-3.86541796E-03-2.56937523E-03
18  7 1.32078974E-02 1.74048683E-02-6.45958947E-03 5.86979320E-03 7.61217984E-03
18  8-5.13871336E-03-6.89012746E-04 1.06355943E-03 2.56857210E-04-6.74188448E-03
18  9-5.29457219E-03 4.26632976E-03-1.42297947E-03-4.06129238E-03 1.14109330E-03
18 10-3.25087773E-03-3.60811240E-03-3.30154819E-03 1.77645698E-02-2.13520304E-02
18 11 1.41942764E-02-2.02678555E-01-8.35138149E-02-2.51338230E-01-7.71651603E-03
18 12 6.58810646E-03 9.54595691E-03-2.48198129E-03-1.01900825E-03-2.14520567E-03
19  1-1.90070742E-02-5.90595745E-03 1.71398351E-02 7.85903953E-03-1.32269814E-03
19  2 5.18827624E-03 2.39592933E-03 4.39223335E-03-6.95907314E-03-4.92339326E-03
19  3-8.40240516E-03 1.34393378E-03-1.63482099E-04 1.19753708E-02 2.87928299E-02
19  4-1.47287912E-01 8.27294211E-02 3.48661112E-02 7.49001117E-01-2.78578724E-01
19  5 2.97741502E-01-2.57801619E-01 2.11197381E-02-2.68881325E-01-1.25146229E-02
19  6-2.68101817E-03-4.32287866E-02-5.61046874E-03 5.45678871E-03 3.52037108E-03
19  7-9.58017823E-06-9.68550623E-05 4.12511512E-04 1.87478363E-04 7.25904220E-04
19  8 2.49142617E-03 3.09378000E-04 2.16948942E-04-1.68918148E-04-7.83842904E-04
19  9-4.05777344E-04 8.15272064E-05-5.21804425E-05-1.57623717E-04 1.11560832E-04
19 10 1.10826789E-03 2.47636781E-04-2.13296552E-05 1.96285159E-03 4.88294206E-03
19 11-4.13547929E-03 1.39775934E-02-1.94498595E-02-1.93316700E-02-3.41027728E-01
19 12 1.81745241E-01-6.66128341E-02 1.23795521E-02 3.50925239E-03 1.76494823E-02
20  1-8.66258185E-03 3.39426074E-03 9.79858109E-03 3.27132591E-03-1.67379025E-03
20  2 1.06627940E-03-4.44250201E-04 4.41034756E-03-6.15020059E-03-1.23689787E-02
20  3-1.07396151E-02 2.79642386E-03 3.42950093E-02-3.06456323E-02-1.79047779E-02
20  4 4.52857849E-02-1.52202814E-01-9.74746559E-02-2.78578724E-01 4.56769192E-01
20  5 1.10319449E-01 3.26437414E-02-1.10611675E-01-4.21905757E-02 3.40274002E-03
20  6 1.68031683E-02 2.42840316E-02 7.29507093E-03-4.10295964E-03 3.89715551E-04
20  7-8.93776306E-04-1.02371549E-03 3.06422545E-04-3.36644074E-03 2.74166293E-04
20  8 4.16382473E-03-9.32082842E-06 5.89182906E-04 1.38245216E-04-1.21631712E-03
20  9-5.84606627E-04 1.14067901E-03-2.25125681E-04-1.39178576E-03 4.73686072E-04
20 10-3.05424752E-04-2.75590920E-04-7.45710604E-04 6.29328425E-03-2.74485994E-04
20 11-1.21450258E-03 7.05426902E-03-2.42239212E-03-3.82656688E-03 1.78523410E-01
20 12-1.72491881E-01 3.59028577E-02-1.19937414E-02 6.19972013E-03-2.12734598E-02
21  1 3.07743959E-02 1.52661157E-02-2.45055572E-02-1.07246204E-02 7.22513442E-04
21  2-6.30389291E-03-1.47697921E-03-8.31920624E-04 7.93989473E-03 1.76517700E-03
21  3-3.78509466E-03-1.02920154E-03 8.17726055E-03 4.93936209E-03 9.54186856E-03
21  4 1.39777721E-02-1.13389779E-01-2.01761113E-01 2.97741502E-01 1.10319449E-01
21  5 9.94665564E-01-2.38928148E-01-5.73519596E-02-6.44144504E-01-3.64129969E-02
21  6 1.85499027E-02-1.33661925E-02 9.84212377E-03-2.08522829E-03 1.07422950E-02
21  7-5.10671121E-04-3.95954841E-04-3.23386667E-04 2.11508614E-03-1.92198538E-03
21  8-1.92057327E-03-3.55341288E-04-7.56914946E-04 8.86450162E-05 8.78173960E-04
21  9 1.92198347E-04-2.35236510E-04-1.26548731E-04-6.21853364E-04 1.39383118E-04
21 10 8.44386494E-04-2.66724617E-04-1.60549798E-03-3.99273963E-03 2.76695262E-03
21 11-1.54043065E-03 1.89929618E-02-1.24317382E-02-1.68213993E-02-7.07094214E-02
21 12 3.91592447E-02-9.33096197E-02-2.18702280E-02 1.92221596E-03-1.62506996E-02
22  1-6.32937196E-03-4.67105444E-03 3.54011942E-03 3.36335724E-03-6.79432820E-04
22  2 2.60387030E-03 1.57128431E-03 2.91996725E-04-4.49483088E-03-4.75807649E-03
22  3 1.76568710E-02-3.86245923E-03-4.10440665E-03 8.76611069E-04 4.60360887E-04
22  4 2.72240415E-02 3.00710853E-04 4.04727945E-03-2.57801619E-01 3.26437414E-02
22  5-2.38928148E-01 6.14171480E-01-2.46929228E-01 2.00872734E-01-2.18866517E-01
22  6 8.77585153E-02-1.50318611E-03-2.58014827E-02 1.93639681E-02-3.85101055E-02
22  7 3.48828069E-04 3.66462380E-04-3.32666774E-05-5.46605157E-04 1.56432369E-04
22  8 4.19153683E-04 1.51902493E-04 9.03203735E-05 4.94778831E-06-8.26758248E-04
22  9 1.23003280E-04 4.78171901E-04 2.10197600E-04 5.38803624E-04-2.16690537E-05
22 10 3.33975463E-04 4.63545428E-04 1.58753471E-03-3.53785187E-04-1.07534993E-03
22 11 8.03807984E-04-2.45356248E-03 2.19894862E-03 2.97207539E-03-1.29988166E-03
22 12-4.50377796E-03-3.43818722E-02-1.24235392E-01 9.50297015E-02 1.03945921E-01
23  1-3.72940960E-03-1.99309048E-03 1.55679557E-03 2.43967961E-03 9.94048410E-05
23  2 2.00777040E-03 1.50596181E-03 1.21640223E-03-3.69335073E-03 1.89607791E-02
23  3-5.32768718E-03 1.51613578E-03 1.38948179E-03 2.31507366E-03 6.79682509E-04
23  4-9.07904177E-03 3.36749045E-04-2.67739225E-02 2.11197381E-02-1.10611675E-01
23  5-5.73519596E-02-2.46929228E-01 4.25134626E-01 2.39707548E-01 8.97303212E-02
23  6-1.61661884E-01-1.50724126E-02 1.11968627E-02 2.02722987E-02 1.23036103E-02
23  7 4.75352622E-07 3.55234898E-04 2.14828987E-04 1.44468224E-04 8.31499937E-04
23  8 1.52632976E-04-8.37891419E-05 5.96879176E-05-4.25296359E-05 9.67151861E-05
23  9-1.67680164E-04-7.50467590E-05-5.55801060E-05 3.17876817E-04 5.15061651E-05
23 10 1.50228470E-03 3.77583513E-04-2.95137372E-03 2.91157000E-04 1.01089345E-03
23 11 3.58954115E-04 2.28089865E-03-2.18906220E-03-3.05136665E-03 1.26619188E-02
23 12 1.33100463E-02 1.92834354E-02 9.65539508E-02-1.83685706E-01-1.68820416E-01
24  1-6.07467443E-03-5.10840285E-03 2.32315708E-03 2.25378769E-03 2.24818962E-04
24  2 1.31076960E-03-1.18492584E-03 2.15150479E-04-5.42489836E-05 2.43118210E-02
24  3-1.95568288E-02 9.07838300E-03-4.91346728E-03 4.07097057E-03 1.33733156E-03
24  4-1.90020882E-03-9.04417170E-03-4.00811221E-02-2.68881325E-01-4.21905757E-02
24  5-6.44144504E-01 2.00872734E-01 2.39707548E-01 1.11002158E+00 3.40441253E-03
24  6-1.20285951E-02-1.17704704E-01-6.31190680E-02 2.67234311E-02-2.37748021E-02
24  7 7.50016374E-04 3.34553141E-04-1.83458657E-04 1.20095052E-05-5.92737835E-04
24  8-2.76919775E-04 1.93035942E-04 8.44023632E-05 1.35409516E-04 2.44725203E-04
24  9 6.43101982E-04-2.95666538E-04-2.01765767E-04 3.44261303E-05 2.13110580E-04
24 10 6.61274809E-04-3.07353437E-03-5.06168219E-03 4.79405991E-05 5.35677140E-04
24 11 3.33378768E-04 1.35553057E-03-3.05215146E-03-2.79456998E-04 2.94345867E-03
24 12-8.20348291E-03 5.50526818E-04 1.09224971E-01-1.69722858E-01-2.93447586E-01
25  1 5.47777715E-03 3.63440794E-03-1.15302525E-03-3.34810361E-03 1.88018233E-03
25  2-4.99726217E-03-1.10522016E-02-7.90484610E-03 1.66852357E-02-1.31126182E-01
25  3 6.90421219E-02 4.61561607E-02 1.24016708E-02-2.19615004E-02-2.49730423E-02
25  4-7.24291321E-03-1.00561840E-02 7.70816116E-03-1.25146229E-02 3.40274002E-03
25  5-3.64129969E-02-2.18866517E-01 8.97303212E-02 3.40441253E-03 6.54883031E-01
25  6-1.64928386E-01 3.38393917E-01-2.75830069E-01 1.37826889E-02-3.56557758E-01
25  7-6.55159742E-04-1.39680043E-04 3.66229011E-04 7.54223412E-05 6.59914208E-04
25  8-4.37104559E-05-3.17342186E-04 5.76004555E-04-1.74727931E-04-7.54660223E-04
25  9-1.52750037E-03 4.14076884E-03-4.66128604E-05-3.46139772E-04-2.70143925E-04
25 10-4.25769717E-03 1.08239175E-02 2.26359847E-02-3.95197582E-03 1.89669119E-03
25 11-7.27528279E-03-9.47527786E-04 1.01878487E-03 1.38010658E-03 3.92315304E-03
25 12 8.54659643E-03-1.56530101E-03-5.84895514E-03 1.87024802E-03-7.44759202E-03
26  1 1.08873606E-02 7.61907551E-04-2.22743075E-03-5.59673393E-03 7.67479679E-04
26  2-6.12803034E-03-7.32569833E-03-1.09545334E-03 1.87004182E-02 6.96052610E-02
26  3-1.38105932E-01-5.28268238E-02-2.06827199E-02-1.18583274E-03-2.99496621E-02
26  4-8.42890738E-03-1.79388197E-02 1.28809686E-02-2.68101817E-03 1.68031683E-02
26  5 1.85499027E-02 8.77585153E-02-1.61661884E-01-1.20285951E-02-1.64928386E-01
26  6 3.90619630E-01 9.46089421E-02 1.16621275E-02-8.37208892E-02-1.85590380E-02
26  7-5.09713754E-04-1.07035681E-03-3.54829211E-04-1.79048551E-03-1.79380477E-03
26  8 2.07259653E-03 3.51673674E-04 4.98233251E-04-9.13178923E-05-3.28873955E-03
26  9-1.99452141E-04 4.35261348E-03-2.35891056E-04-8.98822975E-04-1.65680335E-06
26 10 4.88373443E-03-9.75927349E-03-2.35488467E-02 4.79230798E-03 3.21714202E-03
26 11-4.05458555E-03 1.47423817E-03-1.07731211E-03-1.59930203E-03 8.54194041E-03
26 12 8.57456976E-03-7.74626406E-03 1.55106102E-02-2.73389007E-03 7.95155442E-03
27  1-4.59351676E-03-8.31196329E-04 8.58702458E-05 6.21336720E-03-4.16180648E-03
27  2 7.04421608E-03 2.18234066E-02 1.65755549E-02-2.92975324E-02 1.68484879E-02
27  3-7.81484191E-02-1.74202472E-01 6.57832086E-03-1.21957259E-02-2.49691348E-02
27  4 3.51000743E-04 5.59380600E-03 2.92523852E-03-4.32287866E-02 2.42840316E-02
27  5-1.33661925E-02-1.50318611E-03-1.50724126E-02-1.17704704E-01 3.38393917E-01
27  6 9.46089421E-02 1.11860539E+00-3.59893365E-01-1.84058651E-02-7.90197995E-01
27  7-7.08627173E-05-2.58969974E-04-1.45146039E-04-2.45655489E-04 6.58896325E-05
27  8 2.17142506E-04-2.60144697E-05-1.15301939E-04-2.42415053E-04 4.57879269E-04
27  9-2.63611238E-03-2.33614287E-04 1.17281415E-04-7.84029217E-04 2.95319894E-04
27 10-3.12120660E-03 1.14049335E-02 1.18227160E-02-1.00036513E-03-4.25399540E-04
27 11 9.37209001E-04 4.84559361E-04-5.40077765E-04 5.63855714E-04-2.95208136E-03
27 12-5.60845700E-03-3.27136560E-03 2.53661990E-02-1.33500066E-02 1.11340240E-02
28  1-7.89504635E-04-1.45245963E-03 3.11453144E-04-8.48195764E-05 2.13821763E-04
28  2 3.36843393E-04-7.87803350E-04-1.56680260E-03 2.19175619E-03 2.45411817E-02
28  3-3.02853094E-04-1.05890676E-03-1.31636948E-03 2.70312890E-03 4.13507707E-03
28  4 1.88919888E-03 2.41190616E-03-8.44701360E-04-5.61046874E-03 7.29507093E-03
28  5 9.84212377E-03-2.58014827E-02 1.11968627E-02-6.31190680E-02-2.75830069E-01
28  6 1.16621275E-02-3.59893365E-01 2.80140189E-01-2.54406936E-02 4.08799296E-01
28  7 2.36317474E-04 8.32153591E-05-9.80095540E-05-1.31195915E-04-2.63525705E-04
28  8 1.45458545E-04 1.66855191E-04-8.87163589E-05 1.08359283E-04-1.53335364E-04
28  9 6.99944994E-04-3.85094198E-04 1.27858372E-04 3.75673905E-04-2.75875588E-04
28 10-3.70307375E-04-1.90015898E-03-8.11661579E-04 7.37482659E-04-5.16299772E-04
28 11 1.14669093E-03 3.45422616E-04-4.10803903E-04-3.58557264E-04-9.36695787E-04
28 12-2.11623558E-03-1.76989076E-03 3.62801138E-03-2.58383492E-03 1.59804918E-03
29  1-3.22432334E-03-8.52650131E-04 8.69543723E-04 1.93997207E-03-2.51566287E-05
29  2 1.90804523E-03 5.53770494E-04 1.33227211E-04-3.76888463E-03-1.29381583E-02
29  3 1.18846202E-02-3.19246017E-02 6.30350189E-03-2.08090846E-03 1.09893882E-03
29  4 1.78660816E-03 3.11785675E-03-3.86541796E-03 5.45678871E-03-4.10295964E-03
29  5-2.08522829E-03 1.93639681E-02 2.02722987E-02 2.67234311E-02 1.37826889E-02
29  6-8.37208892E-02-1.84058651E-02-2.54406936E-02 5.30861903E-02 2.39532662E-02
29  7 1.39336312E-04 3.03591740E-04 7.75649966E-05 3.87835142E-04 4.67631562E-04
29  8-4.50557137E-04-7.34006256E-05-7.39002257E-05 1.17520539E-04-2.26086988E-04
29  9-3.36294616E-05 2.55966748E-05-3.18933979E-05 1.35179941E-04 1.05800596E-04
29 10-1.19454898E-03 2.25073481E-03 3.53252601E-03-1.48011666E-03-4.99958228E-04