!File created by the GAMESS Input Deck Generator Plugin for Avogadro
 $BASIS GBASIS=STO NGAUSS=3 $END
 $CONTRL SCFTYP=RHF RUNTYP=SADPOINT NZVAR=1 mult=1  ICHARG=0 $END
 $STATPT hssend=.t. OPTTOL=0.0005 NSTEP=50 $END
 $STATPT HESS=calc ihrep=5 $END
 $FORCE NVIB=2 $END
 $ZMAT DLC=.t. auto=.t. nonvdw(1)= 6,17,9,19,6,9 $END
!$ZMAT IFZMAT(1)=1,6,17,1,17,19,1,9,19 fvalue(1)=2.08,1.98,2.01 $END
  
 $DATA 
Title
C1
C     6.0     3.31329393    -4.84642315     0.19460276
C     6.0     2.36123085    -3.68956494    -0.21298659
C     6.0     2.39265776    -6.01574802     0.63345575
H     1.0     4.00154209    -4.55790567     0.98452824
H     1.0     3.90437293    -5.15089321    -0.66588002
C     6.0     1.04306507    -4.39640188    -0.53130323
H     1.0     2.73232388    -3.15948629    -1.08797526
H     1.0     2.26216722    -2.96062660     0.58958447
C     6.0     1.02629721    -5.72531939    -0.05034907
H     1.0     2.29278255    -6.04594851     1.71425724
H     1.0     2.77475429    -6.98085690     0.30847445
H     1.0     0.41813305    -4.08824158    -1.35667837
C     6.0     0.30978364    -6.83520603    -0.83660930
H     1.0     0.85484707    -7.00921583    -1.76325858
H     1.0    -0.70343632    -6.53521919    -1.08610272
H     1.0     0.27421483    -7.76140594    -0.27268869
B     5.0    -0.23443246    -4.49476480     1.10720968
H     1.0     0.29526281    -3.91978359     1.95424151
H     1.0     0.02542222    -6.40603781     1.55432260
H     1.0    -1.30419314    -4.40811586     0.68635833
 $END


