!File created by the GAMESS Input Deck Generator Plugin for Avogadro
 $BASIS GBASIS=STO NGAUSS=3 $END
 $CONTRL SCFTYP=RHF RUNTYP=SADPOINT $END
 $STATPT hssend=.t. OPTTOL=0.0005 NSTEP=50 $END
 $STATPT HESS=calc ihrep=5 $END
 $FORCE NVIB=2 $END
 $ZMAT DLC=.t. auto=.t. nonvdw(1)=1,6,3,4,4,5,5,6,1,2,2,3 $END
!$ZMAT IFZMAT(1)=1,1,6,1,4,3 fvalue(1)=2.0,2.0 $END

 $DATA 
Title
C1
C     6.0     5.23117161    -1.94577253     2.00718808
C     6.0     3.91168046    -1.51750755     1.82160795
C     6.0     3.41101623    -1.36038744     0.52401531
C     6.0     4.55469942     0.03175749    -0.34427109
C     6.0     5.50022268     0.38439658     0.62635380
C     6.0     6.38196135    -0.62194139     1.04637921
C     6.0     6.91634464    -1.50632262    -0.05034633
C     6.0     6.32762575    -1.58825457    -1.22640121
C     6.0     5.06761885    -0.80784076    -1.52247405
O     8.0     4.49816322    -0.84333313    -2.60517669
H     1.0     5.62548161    -1.94192123     3.01805902
H     1.0     5.56942844    -2.79737759     1.42967844
H     1.0     3.48099875    -0.89258564     2.59540033
H     1.0     3.61767411    -2.14881134    -0.18997373
H     1.0     2.41660714    -0.94274205     0.40836269
H     1.0     3.82460260     0.78030872    -0.63823509
H     1.0     5.28671312     1.20938218     1.29498172
H     1.0     7.10530329    -0.37523893     1.81748915
H     1.0     7.81338596    -2.07482100     0.16968566
H     1.0     6.72381973    -2.19724274    -2.02831125
 $END
